Grasp exp. instance_n_25_m_10_id_1.lp tipoLifted 0 szPool 5 nIteration 20 alpha 0.4 
Academic license - for non-commercial use only
Read LP format model from file ../input/instancesGenerated/instance_n_25_m_10_id_1.lp
Reading time = 0.00 seconds
: 10 rows, 25 columns, 122 nonzeros
Optimize a model with 10 rows, 25 columns and 122 nonzeros
Variable types: 0 continuous, 25 integer (25 binary)
Coefficient statistics:
  Matrix range     [1e+00, 1e+01]
  Objective range  [1e+00, 1e+01]
  Bounds range     [1e+00, 1e+00]
  RHS range        [2e+01, 4e+01]
Found heuristic solution: objective 77.0000000

Explored 0 nodes (0 simplex iterations) in 0.00 seconds
Thread count was 1 (of 8 available processors)

Solution count 1: 77 
No other solutions better than 0

Solution limit reached
Best objective 7.700000000000e+01, best bound -, gap -
C_1:	 7.00 x_2  = 1.000000 + 1.00 x_4  = 1.000000 + 6.00 x_5  = 0.000000 + 1.00 x_7  = 1.000000 + 3.00 x_9  = 1.000000 + 7.00 x_10  = 0.464903 + 7.00 x_12  = 0.000000 + 1.00 x_15  = 1.000000 + 10.00 x_17  = 0.528138 + 8.00 x_18  = 0.093163 + 8.00 x_25  = 0.839873 <= 29.00
C_2:	 1.00 x_3  = 1.000000 + 1.00 x_6  = 0.000000 + 7.00 x_8  = 0.000000 + 3.00 x_9  = 1.000000 + 8.00 x_10  = 0.464903 + 8.00 x_16  = 0.688537 + 9.00 x_18  = 0.093163 + 6.00 x_19  = 0.326043 + 2.00 x_20  = 1.000000 + 9.00 x_23  = 0.806529 + 3.00 x_24  = 0.000000 + 8.00 x_25  = 0.839873 <= 32.00
C_3:	 9.00 x_1  = 0.055599 + 4.00 x_2  = 1.000000 + 1.00 x_3  = 1.000000 + 1.00 x_8  = 0.000000 + 4.00 x_9  = 1.000000 + 6.00 x_12  = 0.000000 + 3.00 x_14  = 0.000000 + 2.00 x_20  = 1.000000 + 7.00 x_21  = 0.000000 + 1.00 x_22  = 1.000000 + 7.00 x_23  = 0.806529 + 7.00 x_25  = 0.839873 <= 26.00
C_4:	 6.00 x_4  = 1.000000 + 2.00 x_6  = 0.000000 + 2.00 x_7  = 1.000000 + 5.00 x_10  = 0.464903 + 2.00 x_12  = 0.000000 + 4.00 x_17  = 0.528138 + 4.00 x_19  = 0.326043 + 8.00 x_21  = 0.000000 + 9.00 x_23  = 0.806529 <= 21.00
C_5:	 9.00 x_1  = 0.055599 + 5.00 x_2  = 1.000000 + 6.00 x_7  = 1.000000 + 2.00 x_9  = 1.000000 + 8.00 x_10  = 0.464903 + 10.00 x_11  = 1.000000 + 5.00 x_12  = 0.000000 + 6.00 x_13  = 1.000000 + 7.00 x_14  = 0.000000 + 1.00 x_15  = 1.000000 + 6.00 x_18  = 0.093163 + 8.00 x_19  = 0.326043 + 2.00 x_22  = 1.000000 + 2.00 x_23  = 0.806529 + 6.00 x_24  = 0.000000 <= 41.00
C_6:	 2.00 x_2  = 1.000000 + 6.00 x_5  = 0.000000 + 7.00 x_6  = 0.000000 + 6.00 x_7  = 1.000000 + 4.00 x_9  = 1.000000 + 8.00 x_12  = 0.000000 + 9.00 x_17  = 0.528138 + 4.00 x_21  = 0.000000 + 6.00 x_22  = 1.000000 + 2.00 x_23  = 0.806529 <= 27.00
C_7:	 8.00 x_1  = 0.055599 + 5.00 x_3  = 1.000000 + 8.00 x_8  = 0.000000 + 5.00 x_9  = 1.000000 + 7.00 x_10  = 0.464903 + 1.00 x_15  = 1.000000 + 4.00 x_16  = 0.688537 + 10.00 x_17  = 0.528138 + 1.00 x_20  = 1.000000 + 6.00 x_21  = 0.000000 + 5.00 x_22  = 1.000000 + 4.00 x_23  = 0.806529 + 4.00 x_24  = 0.000000 + 6.00 x_25  = 0.839873 <= 37.00
C_8:	 2.00 x_3  = 1.000000 + 10.00 x_5  = 0.000000 + 1.00 x_7  = 1.000000 + 3.00 x_8  = 0.000000 + 10.00 x_9  = 1.000000 + 9.00 x_11  = 1.000000 + 3.00 x_12  = 0.000000 + 8.00 x_13  = 1.000000 + 5.00 x_14  = 0.000000 + 5.00 x_16  = 0.688537 + 1.00 x_17  = 0.528138 + 6.00 x_18  = 0.093163 + 4.00 x_19  = 0.326043 + 1.00 x_20  = 1.000000 + 10.00 x_21  = 0.000000 + 1.00 x_23  = 0.806529 + 4.00 x_25  = 0.839873 <= 41.00
C_9:	 7.00 x_3  = 1.000000 + 3.00 x_5  = 0.000000 + 8.00 x_9  = 1.000000 + 4.00 x_11  = 1.000000 + 2.00 x_15  = 1.000000 + 3.00 x_16  = 0.688537 + 9.00 x_19  = 0.326043 + 10.00 x_21  = 0.000000 + 7.00 x_24  = 0.000000 <= 26.00
C_10:	 5.00 x_1  = 0.055599 + 4.00 x_2  = 1.000000 + 4.00 x_5  = 0.000000 + 4.00 x_6  = 0.000000 + 4.00 x_7  = 1.000000 + 10.00 x_12  = 0.000000 + 10.00 x_13  = 1.000000 + 1.00 x_14  = 0.000000 + 10.00 x_15  = 1.000000 + 2.00 x_16  = 0.688537 + 5.00 x_18  = 0.093163 + 6.00 x_21  = 0.000000 + 7.00 x_25  = 0.839873 <= 36.00
Solution initial: 95.445434 
Number Constraints Used in Cover:10
GRASP Method!
Number cuts repeat: 0
value: 95.445434
Number Constraints Used in Cover:21
GRASP Method!
Number cuts repeat: 0
value: 95.445434
Number Constraints Used in Cover:37
GRASP Method!
Number cuts repeat: 0
value: 95.445434
Number Constraints Used in Cover:48
GRASP Method!
Number cuts repeat: 0
value: 95.445434
Number Constraints Used in Cover:61
GRASP Method!
Number cuts repeat: 0
value: 95.445434
Number Constraints Used in Cover:75
GRASP Method!
Number cuts repeat: 0
value: 95.445434
Number Constraints Used in Cover:89
GRASP Method!
Number cuts repeat: 0
value: 95.445434
Number Constraints Used in Cover:95
GRASP Method!
Number cuts repeat: 0
value: 95.445434
Number Constraints Used in Cover:104
GRASP Method!
Number cuts repeat: 0
value: 95.445434
Number Constraints Used in Cover:115
GRASP Method!
Number cuts repeat: 0
value: 95.445434
Number Constraints Used in Cover:130
GRASP Method!
Number cuts repeat: 0
value: 95.445434
Number Constraints Used in Cover:146
GRASP Method!
Number cuts repeat: 0
value: 95.445434
Number Constraints Used in Cover:164
GRASP Method!
Number cuts repeat: 0
value: 95.445434
Number Constraints Used in Cover:172
GRASP Method!
Number cuts repeat: 0
value: 95.445434
Number Constraints Used in Cover:193
GRASP Method!
Number cuts repeat: 0
value: 95.445434
Number Constraints Used in Cover:213
GRASP Method!
Number cuts repeat: 0
value: 95.445434
Number Constraints Used in Cover:229
GRASP Method!
Number cuts repeat: 0
value: 95.445434
Number Constraints Used in Cover:244
GRASP Method!
Number cuts repeat: 0
value: 95.445434
Number Constraints Used in Cover:254
GRASP Method!
Number cuts repeat: 0
value: 95.445434
Number Constraints Used in Cover:261
GRASP Method!
Number cuts repeat: 0
value: 95.445434
Number Constraints Used in Cover:274
GRASP Method!
Number cuts repeat: 0
value: 95.445434
Number Constraints Used in Cover:288
GRASP Method!
Number cuts repeat: 0
value: 95.445434
Number Constraints Used in Cover:303
GRASP Method!
Number cuts repeat: 0
value: 95.445434
Number Constraints Used in Cover:315
GRASP Method!
Number cuts repeat: 0
value: 95.410294
Number Constraints Used in Cover:325
GRASP Method!
Number cuts repeat: 0
value: 95.364687
Number Constraints Used in Cover:337
GRASP Method!
Number cuts repeat: 0
value: 95.364687
Number Constraints Used in Cover:350
GRASP Method!
Number cuts repeat: 0
value: 95.364687
Number Constraints Used in Cover:361
GRASP Method!
Number cuts repeat: 0
value: 95.188653
Number Constraints Used in Cover:376
GRASP Method!
Number cuts repeat: 0
value: 95.188653
Number Constraints Used in Cover:386
GRASP Method!
Number cuts repeat: 0
value: 95.188653
Number Constraints Used in Cover:396
GRASP Method!
Number cuts repeat: 0
value: 95.188653
Number Constraints Used in Cover:403
GRASP Method!
Number cuts repeat: 0
value: 95.188653
Number Constraints Used in Cover:416
GRASP Method!
Number cuts repeat: 0
value: 95.188653
Number Constraints Used in Cover:431
GRASP Method!
Number cuts repeat: 0
value: 95.188653
Number Constraints Used in Cover:442
GRASP Method!
Number cuts repeat: 0
value: 95.188653
Number Constraints Used in Cover:464
GRASP Method!
Number cuts repeat: 0
value: 95.188653
Number Constraints Used in Cover:476
GRASP Method!
Number cuts repeat: 0
value: 95.188653
Number Constraints Used in Cover:497
GRASP Method!
Number cuts repeat: 0
value: 95.188653
Number Constraints Used in Cover:514
GRASP Method!
Number cuts repeat: 0
value: 95.188653
Number Constraints Used in Cover:529
GRASP Method!
Number cuts repeat: 0
value: 95.188653
Number Constraints Used in Cover:545
GRASP Method!
Number cuts repeat: 0
value: 95.188653
Number Constraints Used in Cover:569
GRASP Method!
Number cuts repeat: 0
value: 95.188653
Number Constraints Used in Cover:584
GRASP Method!
Number cuts repeat: 0
value: 95.188653
Number Constraints Used in Cover:597
GRASP Method!
Number cuts repeat: 0
value: 95.188653
Number Constraints Used in Cover:611
GRASP Method!
Number cuts repeat: 0
value: 95.188653
Number Constraints Used in Cover:622
GRASP Method!
Number cuts repeat: 0
value: 95.188653
Number Constraints Used in Cover:630
GRASP Method!
Number cuts repeat: 0
value: 95.188653
Number Constraints Used in Cover:644
GRASP Method!
Number cuts repeat: 0
value: 95.188653
Number Constraints Used in Cover:653
GRASP Method!
Number cuts repeat: 0
value: 95.188653
Number Constraints Used in Cover:666
GRASP Method!
Number cuts repeat: 0
value: 95.188653
Number Constraints Used in Cover:671
GRASP Method!
Number cuts repeat: 0
value: 95.188653
Number Constraints Used in Cover:678
GRASP Method!
Number cuts repeat: 0
value: 95.188653
Number Constraints Used in Cover:694
GRASP Method!
Number cuts repeat: 0
value: 95.188653
Number Constraints Used in Cover:703
GRASP Method!
Number cuts repeat: 0
value: 95.188653
Number Constraints Used in Cover:713
GRASP Method!
Number cuts repeat: 0
value: 95.188653
Number Constraints Used in Cover:722
GRASP Method!
Number cuts repeat: 0
value: 95.188653
Number Constraints Used in Cover:736
GRASP Method!
Number cuts repeat: 0
value: 95.188653
Number Constraints Used in Cover:746
GRASP Method!
Number cuts repeat: 0
value: 95.188653
Number Constraints Used in Cover:755
GRASP Method!
Number cuts repeat: 0
value: 95.188653
Number Constraints Used in Cover:765
GRASP Method!
Number cuts repeat: 0
value: 95.188653
Number Constraints Used in Cover:770
GRASP Method!
Number cuts repeat: 0
value: 95.188653
Number Constraints Used in Cover:774
GRASP Method!
Number cuts repeat: 0
value: 95.017834
Number Constraints Used in Cover:779
GRASP Method!
Number cuts repeat: 0
value: 95.017834
Number Constraints Used in Cover:786
GRASP Method!
Number cuts repeat: 0
value: 95.017834
Number Constraints Used in Cover:797
GRASP Method!
Number cuts repeat: 0
value: 95.017834
Number Constraints Used in Cover:802
GRASP Method!
Number cuts repeat: 0
value: 95.017834
Number Constraints Used in Cover:807
GRASP Method!
Number cuts repeat: 0
value: 95.017834
Number Constraints Used in Cover:810
GRASP Method!
Number cuts repeat: 0
value: 95.017834
Number Constraints Used in Cover:819
GRASP Method!
Number cuts repeat: 0
value: 95.017834
Number Constraints Used in Cover:823
GRASP Method!
Number cuts repeat: 0
value: 95.017834
Number Constraints Used in Cover:835
GRASP Method!
Number cuts repeat: 0
value: 95.017834
Number Constraints Used in Cover:849
GRASP Method!
Number cuts repeat: 0
value: 95.017834
Number Constraints Used in Cover:859
GRASP Method!
Number cuts repeat: 0
value: 95.017834
Number Constraints Used in Cover:862
GRASP Method!
Number cuts repeat: 0
value: 95.017834
Number Constraints Used in Cover:869
GRASP Method!
Number cuts repeat: 0
value: 95.017834
Number Constraints Used in Cover:874
GRASP Method!
Number cuts repeat: 0
value: 95.017834
Number Constraints Used in Cover:876
GRASP Method!
Number cuts repeat: 0
value: 95.017834
Number Constraints Used in Cover:880
GRASP Method!
Number cuts repeat: 0
value: 95.017834
Number Constraints Used in Cover:881
GRASP Method!
Number cuts repeat: 0
value: 95.017834
Number Constraints Used in Cover:884
GRASP Method!
Number cuts repeat: 0
value: 95.017834
Number Constraints Used in Cover:886
GRASP Method!
Number cuts repeat: 0
value: 95.017834
Number Constraints Used in Cover:888
GRASP Method!
Number cuts repeat: 0
value: 95.017834
Number Cuts Final: 882
